
;this file is automatically generated: Tue Apr 27 15:37:12 CST 2021

;declarations generated

(declare-fun oclExcludes ( Int Int) Bool)
(declare-fun type_a7ae1268_f815_4db9_ab61_6dbd4da6ed16_Student ( Int) Bool)
(declare-fun type_a7ae1268_f815_4db9_ab61_6dbd4da6ed16_Person ( Int) Bool)
(declare-fun Cardinality ( Int) Int)
(declare-fun type_a7ae1268_f815_4db9_ab61_6dbd4da6ed16_Module ( Int) Bool)
(declare-fun k8003e789_efad_42c0_b70e_4a90b3714fa4 () Int)
(declare-fun student_year ( Int) Int)
(declare-fun type_a7ae1268_f815_4db9_ab61_6dbd4da6ed16_Child ( Int) Bool)
(declare-fun rel_41484034_3dd0_4750_9b61_25ea7c1d629a_study ( Int Int) Bool)
(declare-fun obj_e57b9230_4f4b_4b82_bbeb_fe7b561d4422 ( Int) Int)
(declare-fun oclSelect ( Int Bool) Int)
(declare-fun kfc4b7a63_b094_414f_8f96_78ff69bfe083 () Int)
(declare-fun module_year ( Int) Int)
(declare-fun container_ ( Int) Int)
(declare-fun oclIncludes ( Int Int) Bool)
(declare-fun type_a7ae1268_f815_4db9_ab61_6dbd4da6ed16_University ( Int) Bool)
(declare-fun ObjAt ( Int Int) Int)
(declare-fun type_a7ae1268_f815_4db9_ab61_6dbd4da6ed16_Department ( Int) Bool)

;formula(s) generated
(assert (forall ((x Int)(y Int)) (=> (and ( rel_41484034_3dd0_4750_9b61_25ea7c1d629a_study ( obj_e57b9230_4f4b_4b82_bbeb_fe7b561d4422 x )   ( obj_e57b9230_4f4b_4b82_bbeb_fe7b561d4422 y )  )  (and (and ( type_a7ae1268_f815_4db9_ab61_6dbd4da6ed16_Student x )  ( type_a7ae1268_f815_4db9_ab61_6dbd4da6ed16_Person x ) ) ( type_a7ae1268_f815_4db9_ab61_6dbd4da6ed16_Module y ) )) (or (or (or (= (* ( Cardinality ( container_ x )  )  0) (* ( Cardinality ( container_ y )  )  1)) (and (= (* ( Cardinality ( container_ y )  )  1) (* ( Cardinality ( container_ x )  )  k8003e789_efad_42c0_b70e_4a90b3714fa4)) (>= k8003e789_efad_42c0_b70e_4a90b3714fa4 0))) (= (* ( Cardinality ( container_ x )  )  0) (* ( Cardinality ( container_ y )  )  1))) (and (= (* ( Cardinality ( container_ y )  )  1) (* ( Cardinality ( container_ x )  )  kfc4b7a63_b094_414f_8f96_78ff69bfe083)) (>= kfc4b7a63_b094_414f_8f96_78ff69bfe083 0))))))
(assert (! (and (forall ((v Int)) (=> (and ( type_a7ae1268_f815_4db9_ab61_6dbd4da6ed16_Student v )  ( type_a7ae1268_f815_4db9_ab61_6dbd4da6ed16_Person v ) ) (>= ( student_year ( obj_e57b9230_4f4b_4b82_bbeb_fe7b561d4422 v )  )  1))) (forall ((v Int)) (=> (and ( type_a7ae1268_f815_4db9_ab61_6dbd4da6ed16_Student v )  ( type_a7ae1268_f815_4db9_ab61_6dbd4da6ed16_Person v ) ) (<= ( student_year ( obj_e57b9230_4f4b_4b82_bbeb_fe7b561d4422 v )  )  6)))):named l0))
(assert (! (and (exists ((s Int)) (and (and ( type_a7ae1268_f815_4db9_ab61_6dbd4da6ed16_Student s )  ( type_a7ae1268_f815_4db9_ab61_6dbd4da6ed16_Person s ) ) (= ( student_year ( obj_e57b9230_4f4b_4b82_bbeb_fe7b561d4422 s )  )  6))) (exists ((s Int)) (and (and ( type_a7ae1268_f815_4db9_ab61_6dbd4da6ed16_Student s )  ( type_a7ae1268_f815_4db9_ab61_6dbd4da6ed16_Person s ) ) (< ( student_year ( obj_e57b9230_4f4b_4b82_bbeb_fe7b561d4422 s )  )  6)))):named l1))
(assert (! (forall ((s1 Int)) (=> (and ( type_a7ae1268_f815_4db9_ab61_6dbd4da6ed16_Student s1 )  ( type_a7ae1268_f815_4db9_ab61_6dbd4da6ed16_Person s1 ) ) (forall ((m1 Int)) (=> (and ( type_a7ae1268_f815_4db9_ab61_6dbd4da6ed16_Module m1 )  ( rel_41484034_3dd0_4750_9b61_25ea7c1d629a_study ( obj_e57b9230_4f4b_4b82_bbeb_fe7b561d4422 s1 )   ( obj_e57b9230_4f4b_4b82_bbeb_fe7b561d4422 m1 )  ) ) (= ( student_year ( obj_e57b9230_4f4b_4b82_bbeb_fe7b561d4422 s1 )  )  ( module_year ( obj_e57b9230_4f4b_4b82_bbeb_fe7b561d4422 m1 )  ) ))))):named l2))
(assert (! (and (forall ((v Int)) (=> ( type_a7ae1268_f815_4db9_ab61_6dbd4da6ed16_Module v )  (>= ( module_year ( obj_e57b9230_4f4b_4b82_bbeb_fe7b561d4422 v )  )  1))) (forall ((v Int)) (=> ( type_a7ae1268_f815_4db9_ab61_6dbd4da6ed16_Module v )  (<= ( module_year ( obj_e57b9230_4f4b_4b82_bbeb_fe7b561d4422 v )  )  5)))):named l3))
(assert (! (forall ((s Int)) (=> (and ( type_a7ae1268_f815_4db9_ab61_6dbd4da6ed16_Student s )  ( type_a7ae1268_f815_4db9_ab61_6dbd4da6ed16_Person s ) ) (exists ((v Int)) (and ( type_a7ae1268_f815_4db9_ab61_6dbd4da6ed16_Module v )  ( rel_41484034_3dd0_4750_9b61_25ea7c1d629a_study ( obj_e57b9230_4f4b_4b82_bbeb_fe7b561d4422 s )   ( obj_e57b9230_4f4b_4b82_bbeb_fe7b561d4422 v )  ) )))):named l4))
(assert (! (exists ((o Int)) (and ( type_a7ae1268_f815_4db9_ab61_6dbd4da6ed16_Child ( obj_e57b9230_4f4b_4b82_bbeb_fe7b561d4422 o )  )  ( type_a7ae1268_f815_4db9_ab61_6dbd4da6ed16_Person ( obj_e57b9230_4f4b_4b82_bbeb_fe7b561d4422 o )  ) )):named c0))
(assert (! (exists ((o Int)) ( type_a7ae1268_f815_4db9_ab61_6dbd4da6ed16_Department ( obj_e57b9230_4f4b_4b82_bbeb_fe7b561d4422 o )  ) ):named c1))
(assert (! (exists ((o Int)) ( type_a7ae1268_f815_4db9_ab61_6dbd4da6ed16_Module ( obj_e57b9230_4f4b_4b82_bbeb_fe7b561d4422 o )  ) ):named c2))
(assert (! (exists ((o Int)) ( type_a7ae1268_f815_4db9_ab61_6dbd4da6ed16_Person ( obj_e57b9230_4f4b_4b82_bbeb_fe7b561d4422 o )  ) ):named c3))
(assert (! (exists ((o Int)) (and ( type_a7ae1268_f815_4db9_ab61_6dbd4da6ed16_Student ( obj_e57b9230_4f4b_4b82_bbeb_fe7b561d4422 o )  )  ( type_a7ae1268_f815_4db9_ab61_6dbd4da6ed16_Person ( obj_e57b9230_4f4b_4b82_bbeb_fe7b561d4422 o )  ) )):named c4))
(assert (! (exists ((o Int)) ( type_a7ae1268_f815_4db9_ab61_6dbd4da6ed16_University ( obj_e57b9230_4f4b_4b82_bbeb_fe7b561d4422 o )  ) ):named c5))

 ;end of formula 